\ Model Cl_30_Ins_9.lp
\ LP format - for model browsing. Use MPS format to capture full model detail.
Maximize
 
Subject To
 obj1: y[0] = 0
 obj2: y[1] = 0
 obj1_Exp: - y[0] + 98 x[0] + 97 x[1] + 85 x[2] + 85 x[3] + 80 x[4]
   + 80 x[5] + 78 x[6] + 78 x[7] + 68 x[8] + 63 x[9] + 61 x[10] + 59 x[11]
   + 53 x[12] + 53 x[13] + 49 x[14] + 48 x[15] + 46 x[16] + 45 x[17]
   + 44 x[18] + 44 x[19] + 41 x[20] + 37 x[21] + 35 x[22] + 26 x[23]
   + 25 x[24] + 24 x[25] + 16 x[26] + 11 x[27] + 9 x[28] + 2 x[29] = 0
 obj2_Exp: - y[1] + 6 x[0] + 11 x[1] + 29 x[2] + 45 x[3] + 64 x[4]
   + 51 x[5] + 55 x[6] + 80 x[7] + 44 x[8] + 28 x[9] + 60 x[10] + 25 x[11]
   + 52 x[12] + 17 x[13] + 99 x[14] + 14 x[15] + 44 x[16] + 28 x[17]
   + 57 x[18] + 12 x[19] + 58 x[20] + 40 x[21] + 65 x[22] + 38 x[23]
   + 15 x[24] + 80 x[25] + 91 x[26] + 51 x[27] + 44 x[28] + 18 x[29] = 0
 Budget: 108 x[0] + 107 x[1] + 95 x[2] + 95 x[3] + 90 x[4] + 90 x[5]
   + 88 x[6] + 88 x[7] + 78 x[8] + 73 x[9] + 71 x[10] + 69 x[11] + 63 x[12]
   + 63 x[13] + 59 x[14] + 58 x[15] + 56 x[16] + 55 x[17] + 54 x[18]
   + 54 x[19] + 51 x[20] + 47 x[21] + 45 x[22] + 36 x[23] + 35 x[24]
   + 34 x[25] + 26 x[26] + 21 x[27] + 19 x[28] + 12 x[29] <= 525
Bounds
Binaries
 x[0] x[1] x[2] x[3] x[4] x[5] x[6] x[7] x[8] x[9] x[10] x[11] x[12] x[13]
 x[14] x[15] x[16] x[17] x[18] x[19] x[20] x[21] x[22] x[23] x[24] x[25]
 x[26] x[27] x[28] x[29]
Generals
 y[0] y[1]
End
